81
88
71
28
87
41
98
99
7
29
4
40
51
34
8
27
72
91
103
95
83
63
50
82
58
18
33
17
31
108
68
84
74
54
78
104
46
107
90
65
89
11
6
14
19
20
77
96
24
62
38
101
79
16
35
55
0
43
76
102
53
97
48
94
105
21
75
85
93
10
59
64
57
32
69
37
80
66
56
12
100
36
61
5
47
73
60
39
86
52
15
23
3
92
9
44
22
109
25
1
